outputs/case_216.model.txt
branch_investment_amount = 1500000000
investment_limit_amount = 2500000000
head_office_investment_amount = 1000000000
investment_limit_complied = True
no_document_concealment = True
invested_related_securities = 0
investment_prohibited_related_securities = True
compliance_credit_and_transaction_limit = True
invested_stock = 0
no_inspection_obstruction = True
no_inspection_evasion = True
no_document_destruction = True
investment_limit_total = 1
investment_approval_document = True
compliance_inspection = True
credit_and_transaction_limit_complied = True
investment_prohibited_stock = True
penalty = False
approval_document_submitted = True
compliance_investment_limit = True
no_inspection_refusal = True
investment_according_to_approval = True